============================[ Problem Statistics ]=============================
|                                                                             |
|  Number of variables:          3189                                         |
|  Number of clauses:            9375                                         |
|  Parse time:                   0.01 s                                       |
|  Eliminated clauses:           0.01 Mb                                      |
|  Simplification time:          0.01 s                                       |
|                                                                             |
============================[ Search Statistics ]==============================
| Conflicts |          ORIGINAL         |          LEARNT          | Progress |
|           |    Vars  Clauses Literals |    Limit  Clauses Lit/Cl |          |
===============================================================================
|       100 |     294     1319     4400 |      483      100      6 | 81.624 % |
|       250 |     294     1319     4400 |      531      250     12 | 81.624 % |
|       475 |     294     1319     4400 |      585      475     20 | 81.624 % |
|       812 |     294     1319     4400 |      643      812     21 | 81.624 % |
|      1318 |     294     1319     4400 |      708     1318     22 | 81.624 % |
|      2077 |     294     1319     4400 |      778     2077     19 | 81.624 % |
|      3216 |     284     1245     4124 |      856     1415     11 | 81.938 % |
===============================================================================
restarts              : 22
conflicts             : 4049           (76172 /sec)
decisions             : 9691           (0.00 % random) (182312 /sec)
propagations          : 109959         (2068609 /sec)
conflict literals     : 61747          (21.88 % deleted)
Memory used           : 2.32 MB
CPU time              : 0.053156 s

UNSATISFIABLE
